h=9;
w=9;
s=3;
b=[|0,5,9,0,2,0,8,6,4|7,6,0,8,4,0,0,0,2|0,2,0,0,6,3,9,0,0|0,8,0,6,0,2,0,9,3|6,0,3,0,0,0,2,0,0|9,0,2,0,8,0,0,0,1|8,1,4,2,0,0,0,3,0|5,0,0,4,9,0,1,2,8|2,9,0,1,3,8,5,4,6|];
t=[|1,1,1,1,0,1,0,0,0|1,0,1,0,0,1,1,1,0|0,0,0,1,0,1,1,1,1|1,0,1,0,1,0,0,1,1|0,1,1,1,1,0,0,0,1|1,0,0,1,0,1,0,1,1|0,1,0,0,1,0,1,1,1|1,1,0,0,1,1,1,0,0|0,1,1,1,1,0,1,0,0|];
